23 6913
97 8645
43 5038
37 5369
70 9930
97 7619
14 4073
15 6159
19 2650
31 1690
35 6677
57 6658
52 9785
17 2985
38 6280
70 1861
44 1718
32 4901
40 9102
94 2303
88 4107
24 5187
90 2095
52 1640
21 3776
93 6009
25 6505
23 8446
27 1724
24 9652
15 8644
68 6628
31 3900
41 9724
10 1351
85 2650
31 3087
28 1965
43 5192
26 2650
11 1416
80 5188
79 8553
89 8921
15 6702
94 6660
86 6592
83 5202
54 5694
66 4206
